org.jcp.jsr331.tck.linear/results/KnapsackProblem.mps
NAME          KnapsackProblem
ROWS
 N  _OBJ_
 L  C1
 L  C2
 L  C3
 L  C4
 L  C5
 L  C6
 L  C7
 E  C8
COLUMNS
    M0000     'MARKER'                 'INTORG'
    Vi0       C1                  19   C2                   0   
    Vi0       C3                   4   C4                   7   
    Vi0       C5                   0   C6                   0   
    Vi0       C7                   0   C8                  96   
    Vi1       C1                   1   C2                   4   
    Vi1       C3                 660   C4                   0   
    Vi1       C5                  20   C6                   0   
    Vi1       C7                  32   C8                  76   
    Vi2       C1                  10   C2                  53   
    Vi2       C3                   3   C4                  18   
    Vi2       C5                   0   C6                  40   
    Vi2       C7                   0   C8                  56   
    Vi3       C1                   1   C2                   0   
    Vi3       C3                   0   C4                   6   
    Vi3       C5                   4   C6                  70   
    Vi3       C7                   0   C8                  11   
    Vi4       C1                   1   C2                   0   
    Vi4       C3                  30   C4                 770   
    Vi4       C5                  52   C6                   4   
    Vi4       C7                   0   C8                  86   
    Vi5       C1                  14   C2                  80   
    Vi5       C3                   0   C4                 330   
    Vi5       C5                   3   C6                  63   
    Vi5       C7                   5   C8                  10   
    Vi6       C1                 152   C2                   0   
    Vi6       C3                   3   C4                   7   
    Vi6       C5                   0   C6                   0   
    Vi6       C7                   0   C8                  66   
    Vi7       C1                  11   C2                   4   
    Vi7       C3                   0   C4                   0   
    Vi7       C5                   0   C6                   0   
    Vi7       C7                   3   C8                  86   
    Vi8       C1                   1   C2                   5   
    Vi8       C3                   4   C4                   0   
    Vi8       C5                   0   C6                  60   
    Vi8       C7                   0   C8                  83   
    Vi9       C1                   1   C2                   0   
    Vi9       C3                  90   C4                   6   
    Vi9       C5                   5   C6                   0   
    Vi9       C7                 660   C8                  12   
    Vi10      C1                   1   C2                   0   
    Vi10      C3                   0   C4                   0   
    Vi10      C5                   4   C6                   4   
    Vi10      C7                   0   C8                   9   
    Vi11      C1                   1   C2                   0   
    Vi11      C3                   0   C4                   0   
    Vi11      C5                   0   C6                   0   
    Vi11      C7                   9   C8                  81   
    Vi12      C8                  -1   
    M0001     'MARKER'                 'INTEND'
    Vi12      _OBJ_                1   
RHS
    rhs       C1               18209   C2                7692   
    rhs       C3                1333   C4                 924   
    rhs       C5               26638   C6               61188   
    rhs       C7               13360   
BOUNDS
 UP bnd       Vi0              61188   
 UP bnd       Vi1              61188   
 UP bnd       Vi2              61188   
 UP bnd       Vi3              61188   
 UP bnd       Vi4              61188   
 UP bnd       Vi5              61188   
 UP bnd       Vi6              61188   
 UP bnd       Vi7              61188   
 UP bnd       Vi8              61188   
 UP bnd       Vi9              61188   
 UP bnd       Vi10             61188   
 UP bnd       Vi11             61188   
 UP bnd       Vi12          41118336   
ENDATA
