org.jcp.jsr331.tck.linear/results/KnapsackProblem.sol
      0 Vi0                   0             -88.895833
      1 Vi1                   0             -12997.552
      2 Vi2                   0             -63.414063
      3 Vi3                 154                      0
      4 Vi4                   0             -802.30729
      5 Vi5                   0             -221.96615
      6 Vi6                   0              -835.1849
      7 Vi7           912.35677                      0
      8 Vi8              333.25                      0
      9 Vi9                   0             -7277.2891
     10 Vi10             6505.5        -1.7763568e-015
     11 Vi11          1180.3255        -1.4210855e-014
     12 Vi12           261972.3                      0
